100
30
29
13
28
5
28
11
28
7
14
13
21
28
17
24
5
21
25
8
12
13
5
32
16
32
24
24
4
12
26
13
5
32
24
23
9
24
19
13
17
19
21
19
8
1
11
18
26
19
9
24
21
26
8
1
14
29
23
15
30
11
20
16
17
21
11
1
25
4
30
32
18
5
10
23
25
21
24
26
20
16
4
6
8
3
28
27
11
26
18
31
17
18
29
2
5
30
27
23
32
27